VERSION: GPU-Pop Bitset Variant
NAME: smoke_20
TYPE: TSP
DIMENSION: 20
Islands: 128
Island population: 32
Total GPU population: 4096
Generations: 1000
Mutation rate: 0.05
Elite count per island: 2

Best GPU-population GA tour length: 73
Best tour (0-based indices):
0 2 1 16 17 3 7 12 11 13 14 6 5 19 4 10 8 9 18 15 0
	Command being timed: "./build/CUDA-GA-GPU-Pop-bitset sequential/tests/fixtures/smoke_20.tsp 128 1000 0.05 2 42"
	User time (seconds): 0.03
	System time (seconds): 0.11
	Percent of CPU this job got: 92%
	Elapsed (wall clock) time (h:mm:ss or m:ss): 0:00.16
	Average shared text size (kbytes): 0
	Average unshared data size (kbytes): 0
	Average stack size (kbytes): 0
	Average total size (kbytes): 0
	Maximum resident set size (kbytes): 122272
	Average resident set size (kbytes): 0
	Major (requiring I/O) page faults: 1
	Minor (reclaiming a frame) page faults: 5547
	Voluntary context switches: 52
	Involuntary context switches: 3
	Swaps: 0
	File system inputs: 1984
	File system outputs: 8
	Socket messages sent: 0
	Socket messages received: 0
	Signals delivered: 0
	Page size (bytes): 4096
	Exit status: 0
